data;
set K:= K1 K2 K3 K4 K5 K6 K7 ;

set F:= F1 F2 ;

set Q:= Q1 Q2 ;

param T:= 45;
param V: 
	K1  K2  K3  K4  K5  K6  K7  :=
Q1	1   1   1   1   0   0   0   
Q2	0   0   0   0   1   1   1   
; # if resorce k is of type q

param TF:= 
K1 6
K2 6
K3 6
K4 6
K5 12
K6 12
K7 12
; # number of continuous time slots resource can fly

param TR:= 
K1 2
K2 2
K3 2
K4 2
K5 4
K6 4
K7 4
; #  number of continuous time slots resource k needs to rest between flights

param P:= 
K1 36
K2 36
K3 36
K4 36
K5 36
K6 36
K7 36
; #  number of continuous time slots a pilot can be present including rest times for resource k 

param N:= 
K1 4
K2 4
K3 4
K4 4
K5 2
K6 1
K7 2
; # max number of flights resource k can fly in the total time period

param A: 
	K1  K2  K3  K4  K5  K6  K7  :=
1	1   1   1   1   1   0   1   
2	1   1   1   1   1   0   1   
3	1   1   1   1   1   0   1   
4	1   1   1   1   1   0   1   
5	1   1   1   1   1   0   1   
6	1   1   1   1   1   0   1   
7	1   1   1   1   1   0   1   
8	1   1   1   1   1   0   1   
9	1   1   1   1   1   0   1   
10	1   1   1   1   1   0   1   
11	1   1   1   1   1   0   1   
12	1   1   1   1   1   0   1   
13	1   1   1   1   1   0   1   
14	1   1   1   1   1   1   1   
15	1   1   1   1   1   1   1   
16	1   1   1   1   1   1   1   
17	1   1   1   1   1   1   1   
18	1   1   1   1   1   1   1   
19	1   1   1   1   1   1   1   
20	1   1   1   1   1   1   1   
21	1   1   1   1   1   1   1   
22	1   1   1   1   1   1   1   
23	1   1   1   1   1   1   1   
24	1   1   1   1   1   1   1   
25	1   1   1   1   1   1   1   
26	1   1   1   1   1   1   1   
27	1   1   1   1   1   1   1   
28	1   1   1   1   1   1   1   
29	1   1   1   1   1   1   1   
30	1   1   1   1   1   1   1   
31	1   1   1   1   1   1   1   
32	1   1   1   1   1   1   1   
33	1   1   1   1   1   1   1   
34	1   1   1   1   1   1   1   
35	1   1   1   1   1   1   1   
36	1   1   1   1   1   1   1   
37	1   1   1   1   1   1   1   
38	1   1   1   1   1   1   1   
39	1   1   1   1   1   1   1   
40	1   1   1   1   1   1   1   
41	1   1   1   1   1   1   1   
42	1   1   1   1   1   1   1   
43	1   1   1   1   1   1   1   
44	1   1   1   1   1   1   1   
45	1   1   1   1   1   1   1   
; # availability of resorce k in time slot t

param B: 
	F1  F2  :=
Q1	0   0   
Q2	0   0   
; # if front f requires resources of type q

param U: 
	F1  F2  :=
K1	0   0   
K2	0   0   
K3	0   0   
K4	0   0   
K5	1   1   
K6	0   0   
K7	1   1   
; # transit time of resource

param C:= 
K1 900
K2 900
K3 1500
K4 4500
K5 5500
K6 5500
K7 5500
; #  water capacity of resource k

param S:= 
F1 7
F2 8
; # max number of resources that can fly at front f in the same time slot

param D:= 

[*,*,F1 ]:  K1    K2    K3    K4    K5    K6    K7    :=
1           1.57  1.57  1.57  1.25  0.94  0.94  0.94  
2           1.57  1.57  1.57  1.25  0.94  0.94  0.94  
3           1.57  1.57  1.57  1.25  0.94  0.94  0.94  
4           1.57  1.57  1.57  1.25  0.94  0.94  0.94  
5           1.57  1.57  1.57  1.25  0.94  0.94  0.94  
6           1.57  1.57  1.57  1.25  0.94  0.94  0.94  
7           1.57  1.57  1.57  1.25  0.94  0.94  0.94  
8           1.57  1.57  1.57  1.25  0.94  0.94  0.94  
9           1.57  1.57  1.57  1.25  0.94  0.94  0.94  
10          1.57  1.57  1.57  1.25  0.94  0.94  0.94  
11          1.57  1.57  1.57  1.25  0.94  0.94  0.94  
12          1.57  1.57  1.57  1.25  0.94  0.94  0.94  
13          1.57  1.57  1.57  1.25  0.94  0.94  0.94  
14          1.57  1.57  1.57  1.25  0.94  0.94  0.94  
15          1.57  1.57  1.57  1.25  0.94  0.94  0.94  
16          1.57  1.57  1.57  1.25  0.94  0.94  0.94  
17          1.57  1.57  1.57  1.25  0.94  0.94  0.94  
18          1.57  1.57  1.57  1.25  0.94  0.94  0.94  
19          1.57  1.57  1.57  1.25  0.94  0.94  0.94  
20          1.57  1.57  1.57  1.25  0.94  0.94  0.94  
21          1.57  1.57  1.57  1.25  0.94  0.94  0.94  
22          1.57  1.57  1.57  1.25  0.94  0.94  0.94  
23          1.57  1.57  1.57  1.25  0.94  0.94  0.94  
24          1.57  1.57  1.57  1.25  0.94  0.94  0.94  
25          1.49  1.49  1.49  1.19  0.89  0.89  0.89  
26          1.49  1.49  1.49  1.19  0.89  0.89  0.89  
27          1.49  1.49  1.49  1.19  0.89  0.89  0.89  
28          1.49  1.49  1.49  1.19  0.89  0.89  0.89  
29          1.49  1.49  1.49  1.19  0.89  0.89  0.89  
30          1.49  1.49  1.49  1.19  0.89  0.89  0.89  
31          1.49  1.49  1.49  1.19  0.89  0.89  0.89  
32          1.49  1.49  1.49  1.19  0.89  0.89  0.89  
33          1.49  1.49  1.49  1.19  0.89  0.89  0.89  
34          1.57  1.57  1.57  1.25  0.94  0.94  0.94  
35          1.57  1.57  1.57  1.25  0.94  0.94  0.94  
36          1.57  1.57  1.57  1.25  0.94  0.94  0.94  
37          1.57  1.57  1.57  1.25  0.94  0.94  0.94  
38          1.57  1.57  1.57  1.25  0.94  0.94  0.94  
39          1.57  1.57  1.57  1.25  0.94  0.94  0.94  
40          1.57  1.57  1.57  1.25  0.94  0.94  0.94  
41          1.57  1.57  1.57  1.25  0.94  0.94  0.94  
42          1.57  1.57  1.57  1.25  0.94  0.94  0.94  
43          1.57  1.57  1.57  1.25  0.94  0.94  0.94  
44          1.57  1.57  1.57  1.25  0.94  0.94  0.94  
45          1.57  1.57  1.57  1.25  0.94  0.94  0.94  

[*,*,F2 ]:  K1    K2    K3    K4    K5    K6    K7    :=
1           1.75  1.75  1.75  1.40  1.05  1.05  1.05  
2           1.75  1.75  1.75  1.40  1.05  1.05  1.05  
3           1.75  1.75  1.75  1.40  1.05  1.05  1.05  
4           1.75  1.75  1.75  1.40  1.05  1.05  1.05  
5           1.75  1.75  1.75  1.40  1.05  1.05  1.05  
6           1.75  1.75  1.75  1.40  1.05  1.05  1.05  
7           1.75  1.75  1.75  1.40  1.05  1.05  1.05  
8           1.75  1.75  1.75  1.40  1.05  1.05  1.05  
9           1.75  1.75  1.75  1.40  1.05  1.05  1.05  
10          1.75  1.75  1.75  1.40  1.05  1.05  1.05  
11          1.75  1.75  1.75  1.40  1.05  1.05  1.05  
12          1.75  1.75  1.75  1.40  1.05  1.05  1.05  
13          1.75  1.75  1.75  1.40  1.05  1.05  1.05  
14          1.75  1.75  1.75  1.40  1.05  1.05  1.05  
15          1.75  1.75  1.75  1.40  1.05  1.05  1.05  
16          1.75  1.75  1.75  1.40  1.05  1.05  1.05  
17          1.75  1.75  1.75  1.40  1.05  1.05  1.05  
18          1.75  1.75  1.75  1.40  1.05  1.05  1.05  
19          1.75  1.75  1.75  1.40  1.05  1.05  1.05  
20          1.75  1.75  1.75  1.40  1.05  1.05  1.05  
21          1.75  1.75  1.75  1.40  1.05  1.05  1.05  
22          1.75  1.75  1.75  1.40  1.05  1.05  1.05  
23          1.75  1.75  1.75  1.40  1.05  1.05  1.05  
24          1.75  1.75  1.75  1.40  1.05  1.05  1.05  
25          1.67  1.67  1.67  1.33  1.00  1.00  1.00  
26          1.67  1.67  1.67  1.33  1.00  1.00  1.00  
27          1.67  1.67  1.67  1.33  1.00  1.00  1.00  
28          1.67  1.67  1.67  1.33  1.00  1.00  1.00  
29          1.67  1.67  1.67  1.33  1.00  1.00  1.00  
30          1.67  1.67  1.67  1.33  1.00  1.00  1.00  
31          1.67  1.67  1.67  1.33  1.00  1.00  1.00  
32          1.67  1.67  1.67  1.33  1.00  1.00  1.00  
33          1.67  1.67  1.67  1.33  1.00  1.00  1.00  
34          1.75  1.75  1.75  1.40  1.05  1.05  1.05  
35          1.75  1.75  1.75  1.40  1.05  1.05  1.05  
36          1.75  1.75  1.75  1.40  1.05  1.05  1.05  
37          1.75  1.75  1.75  1.40  1.05  1.05  1.05  
38          1.75  1.75  1.75  1.40  1.05  1.05  1.05  
39          1.75  1.75  1.75  1.40  1.05  1.05  1.05  
40          1.75  1.75  1.75  1.40  1.05  1.05  1.05  
41          1.75  1.75  1.75  1.40  1.05  1.05  1.05  
42          1.75  1.75  1.75  1.40  1.05  1.05  1.05  
43          1.75  1.75  1.75  1.40  1.05  1.05  1.05  
44          1.75  1.75  1.75  1.40  1.05  1.05  1.05  
45          1.75  1.75  1.75  1.40  1.05  1.05  1.05  
; # downloads resource k can do at front f in time t if intermediate time slot

param E:= 

[*,*,F1 ]:  K1    K2    K3    K4    K5    K6    K7    :=
1           0.02  0.13  0.85  0.46  0.23  0.30  0.25  
2           0.02  0.13  0.85  0.46  0.23  0.30  0.25  
3           0.02  0.13  0.85  0.46  0.23  0.30  0.25  
4           0.02  0.13  0.85  0.46  0.23  0.30  0.25  
5           0.02  0.13  0.85  0.46  0.23  0.30  0.25  
6           0.02  0.13  0.85  0.46  0.23  0.30  0.25  
7           0.02  0.13  0.85  0.46  0.23  0.30  0.25  
8           0.02  0.13  0.85  0.46  0.23  0.30  0.25  
9           0.02  0.13  0.85  0.46  0.23  0.30  0.25  
10          0.02  0.13  0.85  0.46  0.23  0.30  0.25  
11          0.02  0.13  0.85  0.46  0.23  0.30  0.25  
12          0.02  0.13  0.85  0.46  0.23  0.30  0.25  
13          0.02  0.13  0.85  0.46  0.23  0.30  0.25  
14          0.02  0.13  0.85  0.46  0.23  0.30  0.25  
15          0.02  0.13  0.85  0.46  0.23  0.30  0.25  
16          0.02  0.13  0.85  0.46  0.23  0.30  0.25  
17          0.02  0.13  0.85  0.46  0.23  0.30  0.25  
18          0.02  0.13  0.85  0.46  0.23  0.30  0.25  
19          0.02  0.13  0.85  0.46  0.23  0.30  0.25  
20          0.02  0.13  0.85  0.46  0.23  0.30  0.25  
21          0.02  0.13  0.85  0.46  0.23  0.30  0.25  
22          0.02  0.13  0.85  0.46  0.23  0.30  0.25  
23          0.02  0.13  0.85  0.46  0.23  0.30  0.25  
24          0.02  0.13  0.85  0.46  0.23  0.30  0.25  
25          0.01  0.12  0.81  0.44  0.21  0.29  0.24  
26          0.01  0.12  0.81  0.44  0.21  0.29  0.24  
27          0.01  0.12  0.81  0.44  0.21  0.29  0.24  
28          0.01  0.12  0.81  0.44  0.21  0.29  0.24  
29          0.01  0.12  0.81  0.44  0.21  0.29  0.24  
30          0.01  0.12  0.81  0.44  0.21  0.29  0.24  
31          0.01  0.12  0.81  0.44  0.21  0.29  0.24  
32          0.01  0.12  0.81  0.44  0.21  0.29  0.24  
33          0.01  0.12  0.81  0.44  0.21  0.29  0.24  
34          0.02  0.13  0.85  0.46  0.23  0.30  0.25  
35          0.02  0.13  0.85  0.46  0.23  0.30  0.25  
36          0.02  0.13  0.85  0.46  0.23  0.30  0.25  
37          0.02  0.13  0.85  0.46  0.23  0.30  0.25  
38          0.02  0.13  0.85  0.46  0.23  0.30  0.25  
39          0.02  0.13  0.85  0.46  0.23  0.30  0.25  
40          0.02  0.13  0.85  0.46  0.23  0.30  0.25  
41          0.02  0.13  0.85  0.46  0.23  0.30  0.25  
42          0.02  0.13  0.85  0.46  0.23  0.30  0.25  
43          0.02  0.13  0.85  0.46  0.23  0.30  0.25  
44          0.02  0.13  0.85  0.46  0.23  0.30  0.25  
45          0.02  0.13  0.85  0.46  0.23  0.30  0.25  

[*,*,F2 ]:  K1    K2    K3    K4    K5    K6    K7    :=
1           0.05  0.28  0.89  0.60  0.31  0.34  0.33  
2           0.05  0.28  0.89  0.60  0.31  0.34  0.33  
3           0.05  0.28  0.89  0.60  0.31  0.34  0.33  
4           0.05  0.28  0.89  0.60  0.31  0.34  0.33  
5           0.05  0.28  0.89  0.60  0.31  0.34  0.33  
6           0.05  0.28  0.89  0.60  0.31  0.34  0.33  
7           0.05  0.28  0.89  0.60  0.31  0.34  0.33  
8           0.05  0.28  0.89  0.60  0.31  0.34  0.33  
9           0.05  0.28  0.89  0.60  0.31  0.34  0.33  
10          0.05  0.28  0.89  0.60  0.31  0.34  0.33  
11          0.05  0.28  0.89  0.60  0.31  0.34  0.33  
12          0.05  0.28  0.89  0.60  0.31  0.34  0.33  
13          0.05  0.28  0.89  0.60  0.31  0.34  0.33  
14          0.05  0.28  0.89  0.60  0.31  0.34  0.33  
15          0.05  0.28  0.89  0.60  0.31  0.34  0.33  
16          0.05  0.28  0.89  0.60  0.31  0.34  0.33  
17          0.05  0.28  0.89  0.60  0.31  0.34  0.33  
18          0.05  0.28  0.89  0.60  0.31  0.34  0.33  
19          0.05  0.28  0.89  0.60  0.31  0.34  0.33  
20          0.05  0.28  0.89  0.60  0.31  0.34  0.33  
21          0.05  0.28  0.89  0.60  0.31  0.34  0.33  
22          0.05  0.28  0.89  0.60  0.31  0.34  0.33  
23          0.05  0.28  0.89  0.60  0.31  0.34  0.33  
24          0.05  0.28  0.89  0.60  0.31  0.34  0.33  
25          0.05  0.27  0.85  0.57  0.30  0.32  0.31  
26          0.05  0.27  0.85  0.57  0.30  0.32  0.31  
27          0.05  0.27  0.85  0.57  0.30  0.32  0.31  
28          0.05  0.27  0.85  0.57  0.30  0.32  0.31  
29          0.05  0.27  0.85  0.57  0.30  0.32  0.31  
30          0.05  0.27  0.85  0.57  0.30  0.32  0.31  
31          0.05  0.27  0.85  0.57  0.30  0.32  0.31  
32          0.05  0.27  0.85  0.57  0.30  0.32  0.31  
33          0.05  0.27  0.85  0.57  0.30  0.32  0.31  
34          0.05  0.28  0.89  0.60  0.31  0.34  0.33  
35          0.05  0.28  0.89  0.60  0.31  0.34  0.33  
36          0.05  0.28  0.89  0.60  0.31  0.34  0.33  
37          0.05  0.28  0.89  0.60  0.31  0.34  0.33  
38          0.05  0.28  0.89  0.60  0.31  0.34  0.33  
39          0.05  0.28  0.89  0.60  0.31  0.34  0.33  
40          0.05  0.28  0.89  0.60  0.31  0.34  0.33  
41          0.05  0.28  0.89  0.60  0.31  0.34  0.33  
42          0.05  0.28  0.89  0.60  0.31  0.34  0.33  
43          0.05  0.28  0.89  0.60  0.31  0.34  0.33  
44          0.05  0.28  0.89  0.60  0.31  0.34  0.33  
45          0.05  0.28  0.89  0.60  0.31  0.34  0.33  
; # downloads resource k can do at front f in time t if starting or ending flight

param W: 
	F1        F2        :=
1	851.53    851.53    
2	3406.11   3406.11   
3	3406.11   3406.11   
4	3406.11   3406.11   
5	3406.11   3406.11   
6	3406.11   3406.11   
7	3406.11   3406.11   
8	3406.11   3406.11   
9	3406.11   3406.11   
10	3406.11   3406.11   
11	3406.11   3406.11   
12	3406.11   3406.11   
13	3406.11   3406.11   
14	3406.11   3406.11   
15	3406.11   3406.11   
16	3406.11   3406.11   
17	3406.11   3406.11   
18	3406.11   3406.11   
19	1513.82   1513.82   
20	1513.82   1513.82   
21	1513.82   1513.82   
22	1513.82   1513.82   
23	1513.82   1513.82   
24	1513.82   1513.82   
25	1513.82   1513.82   
26	1513.82   1513.82   
27	1513.82   1513.82   
28	1513.82   1513.82   
29	1513.82   1513.82   
30	1513.82   1513.82   
31	1513.82   1513.82   
32	1513.82   1513.82   
33	1513.82   1513.82   
34	1513.82   1513.82   
35	1513.82   1513.82   
36	1513.82   1513.82   
37	1513.82   1513.82   
38	1513.82   1513.82   
39	1513.82   1513.82   
40	1513.82   1513.82   
41	1513.82   1513.82   
42	1513.82   1513.82   
43	1513.82   1513.82   
44	1513.82   1513.82   
45	378.46    378.46    
; # water needed at front f in time slot t

param M := 100000000; 

param a1:= 10000000;

param a2:= 100;

param a3:= 0.0001;
